solution status: optimal solution found
objective value:                                    0
$_271_y                                             2 	(obj:0)
$_271_z                                            -2 	(obj:0)
$_250_y                                            -1 	(obj:0)
$_250_z                                            -2 	(obj:0)
$_249_y                                            -1 	(obj:0)
$_249_z                                            -3 	(obj:0)
$_210_y                                            -3 	(obj:0)
$_210_z                                             1 	(obj:0)
$_56_y                                             -4 	(obj:0)
$_56_z                                             -8 	(obj:0)
$_167_y                                            -4 	(obj:0)
$_167_z                                             1 	(obj:0)
$_92_y                                             -1 	(obj:0)
$_92_z                                             -6 	(obj:0)
$_34_y                                            -10 	(obj:0)
$_34_z                                             -2 	(obj:0)
$_168_y                                            -4 	(obj:0)
$_168_z                                             2 	(obj:0)
$_209_z                                             1 	(obj:0)
$_91_y                                             -8 	(obj:0)
$_91_z                                              1 	(obj:0)
$_169_y                                            -6 	(obj:0)
$_169_z                                             1 	(obj:0)
$_251_y                                            -1 	(obj:0)
$_282_y                                             2 	(obj:0)
$_282_z                                            -3 	(obj:0)
$_148_y                                            -4 	(obj:0)
$_148_z                                             4 	(obj:0)
$_208_y                                            -1 	(obj:0)
$_208_z                                             1 	(obj:0)
$_90_y                                             -2 	(obj:0)
$_90_z                                             -6 	(obj:0)
$_230_y                                             3 	(obj:0)
$_230_z                                             1 	(obj:0)
$_93_y                                             -8 	(obj:0)
$_189_y                                            -1 	(obj:0)
$_189_z                                             5 	(obj:0)
